p cnf 150 1849
1 2 3 4 5 0
6 7 8 9 10 0
11 12 13 14 15 0
16 17 18 19 20 0
21 22 23 24 25 0
26 27 28 29 30 0
31 32 33 34 35 0
36 37 38 39 40 0
41 42 43 44 45 0
46 47 48 49 50 0
51 52 53 54 55 0
56 57 58 59 60 0
61 62 63 64 65 0
66 67 68 69 70 0
71 72 73 74 75 0
76 77 78 79 80 0
81 82 83 84 85 0
86 87 88 89 90 0
91 92 93 94 95 0
96 97 98 99 100 0
101 102 103 104 105 0
106 107 108 109 110 0
111 112 113 114 115 0
116 117 118 119 120 0
121 122 123 124 125 0
126 127 128 129 130 0
131 132 133 134 135 0
136 137 138 139 140 0
141 142 143 144 145 0
146 147 148 149 150 0
-1 -2 0
-1 -3 0
-1 -4 0
-1 -5 0
-2 -3 0
-2 -4 0
-2 -5 0
-3 -4 0
-3 -5 0
-4 -5 0
-6 -7 0
-6 -8 0
-6 -9 0
-6 -10 0
-7 -8 0
-7 -9 0
-7 -10 0
-8 -9 0
-8 -10 0
-9 -10 0
-11 -12 0
-11 -13 0
-11 -14 0
-11 -15 0
-12 -13 0
-12 -14 0
-12 -15 0
-13 -14 0
-13 -15 0
-14 -15 0
-16 -17 0
-16 -18 0
-16 -19 0
-16 -20 0
-17 -18 0
-17 -19 0
-17 -20 0
-18 -19 0
-18 -20 0
-19 -20 0
-21 -22 0
-21 -23 0
-21 -24 0
-21 -25 0
-22 -23 0
-22 -24 0
-22 -25 0
-23 -24 0
-23 -25 0
-24 -25 0
-26 -27 0
-26 -28 0
-26 -29 0
-26 -30 0
-27 -28 0
-27 -29 0
-27 -30 0
-28 -29 0
-28 -30 0
-29 -30 0
-31 -32 0
-31 -33 0
-31 -34 0
-31 -35 0
-32 -33 0
-32 -34 0
-32 -35 0
-33 -34 0
-33 -35 0
-34 -35 0
-36 -37 0
-36 -38 0
-36 -39 0
-36 -40 0
-37 -38 0
-37 -39 0
-37 -40 0
-38 -39 0
-38 -40 0
-39 -40 0
-41 -42 0
-41 -43 0
-41 -44 0
-41 -45 0
-42 -43 0
-42 -44 0
-42 -45 0
-43 -44 0
-43 -45 0
-44 -45 0
-46 -47 0
-46 -48 0
-46 -49 0
-46 -50 0
-47 -48 0
-47 -49 0
-47 -50 0
-48 -49 0
-48 -50 0
-49 -50 0
-51 -52 0
-51 -53 0
-51 -54 0
-51 -55 0
-52 -53 0
-52 -54 0
-52 -55 0
-53 -54 0
-53 -55 0
-54 -55 0
-56 -57 0
-56 -58 0
-56 -59 0
-56 -60 0
-57 -58 0
-57 -59 0
-57 -60 0
-58 -59 0
-58 -60 0
-59 -60 0
-61 -62 0
-61 -63 0
-61 -64 0
-61 -65 0
-62 -63 0
-62 -64 0
-62 -65 0
-63 -64 0
-63 -65 0
-64 -65 0
-66 -67 0
-66 -68 0
-66 -69 0
-66 -70 0
-67 -68 0
-67 -69 0
-67 -70 0
-68 -69 0
-68 -70 0
-69 -70 0
-71 -72 0
-71 -73 0
-71 -74 0
-71 -75 0
-72 -73 0
-72 -74 0
-72 -75 0
-73 -74 0
-73 -75 0
-74 -75 0
-76 -77 0
-76 -78 0
-76 -79 0
-76 -80 0
-77 -78 0
-77 -79 0
-77 -80 0
-78 -79 0
-78 -80 0
-79 -80 0
-81 -82 0
-81 -83 0
-81 -84 0
-81 -85 0
-82 -83 0
-82 -84 0
-82 -85 0
-83 -84 0
-83 -85 0
-84 -85 0
-86 -87 0
-86 -88 0
-86 -89 0
-86 -90 0
-87 -88 0
-87 -89 0
-87 -90 0
-88 -89 0
-88 -90 0
-89 -90 0
-91 -92 0
-91 -93 0
-91 -94 0
-91 -95 0
-92 -93 0
-92 -94 0
-92 -95 0
-93 -94 0
-93 -95 0
-94 -95 0
-96 -97 0
-96 -98 0
-96 -99 0
-96 -100 0
-97 -98 0
-97 -99 0
-97 -100 0
-98 -99 0
-98 -100 0
-99 -100 0
-101 -102 0
-101 -103 0
-101 -104 0
-101 -105 0
-102 -103 0
-102 -104 0
-102 -105 0
-103 -104 0
-103 -105 0
-104 -105 0
-106 -107 0
-106 -108 0
-106 -109 0
-106 -110 0
-107 -108 0
-107 -109 0
-107 -110 0
-108 -109 0
-108 -110 0
-109 -110 0
-111 -112 0
-111 -113 0
-111 -114 0
-111 -115 0
-112 -113 0
-112 -114 0
-112 -115 0
-113 -114 0
-113 -115 0
-114 -115 0
-116 -117 0
-116 -118 0
-116 -119 0
-116 -120 0
-117 -118 0
-117 -119 0
-117 -120 0
-118 -119 0
-118 -120 0
-119 -120 0
-121 -122 0
-121 -123 0
-121 -124 0
-121 -125 0
-122 -123 0
-122 -124 0
-122 -125 0
-123 -124 0
-123 -125 0
-124 -125 0
-126 -127 0
-126 -128 0
-126 -129 0
-126 -130 0
-127 -128 0
-127 -129 0
-127 -130 0
-128 -129 0
-128 -130 0
-129 -130 0
-131 -132 0
-131 -133 0
-131 -134 0
-131 -135 0
-132 -133 0
-132 -134 0
-132 -135 0
-133 -134 0
-133 -135 0
-134 -135 0
-136 -137 0
-136 -138 0
-136 -139 0
-136 -140 0
-137 -138 0
-137 -139 0
-137 -140 0
-138 -139 0
-138 -140 0
-139 -140 0
-141 -142 0
-141 -143 0
-141 -144 0
-141 -145 0
-142 -143 0
-142 -144 0
-142 -145 0
-143 -144 0
-143 -145 0
-144 -145 0
-146 -147 0
-146 -148 0
-146 -149 0
-146 -150 0
-147 -148 0
-147 -149 0
-147 -150 0
-148 -149 0
-148 -150 0
-149 -150 0
-3 -20 0
-1 -19 0
-5 -19 0
-4 -19 0
-3 -16 0
-4 -20 0
-2 -19 0
-5 -40 0
-1 -39 0
-2 -36 0
-2 -37 0
-5 -39 0
-3 -37 0
-5 -38 0
-4 -41 0
-5 -44 0
-1 -44 0
-4 -44 0
-1 -45 0
-5 -42 0
-3 -45 0
-3 -56 0
-5 -60 0
-5 -58 0
-2 -59 0
-4 -57 0
-3 -59 0
-1 -57 0
-2 -68 0
-4 -66 0
-4 -67 0
-3 -69 0
-1 -66 0
-5 -70 0
-2 -70 0
-4 -76 0
-3 -79 0
-1 -79 0
-1 -76 0
-4 -79 0
-3 -80 0
-1 -78 0
-4 -86 0
-4 -88 0
-4 -89 0
-2 -89 0
-4 -87 0
-4 -90 0
-2 -86 0
-4 -116 0
-3 -117 0
-5 -116 0
-1 -117 0
-1 -119 0
-5 -120 0
-3 -116 0
-4 -131 0
-2 -133 0
-3 -134 0
-1 -135 0
-4 -132 0
-5 -135 0
-2 -132 0
-3 -138 0
-2 -140 0
-2 -138 0
-4 -139 0
-3 -137 0
-5 -138 0
-2 -136 0
-5 -144 0
-4 -144 0
-2 -142 0
-3 -145 0
-1 -141 0
-5 -141 0
-2 -145 0
-10 -28 0
-6 -27 0
-6 -30 0
-9 -29 0
-7 -28 0
-8 -27 0
-7 -27 0
-8 -38 0
-7 -39 0
-6 -36 0
-8 -39 0
-7 -40 0
-10 -36 0
-9 -38 0
-10 -43 0
-8 -41 0
-6 -41 0
-6 -43 0
-9 -42 0
-10 -41 0
-7 -45 0
-8 -52 0
-10 -51 0
-9 -52 0
-10 -54 0
-9 -53 0
-7 -54 0
-7 -53 0
-7 -63 0
-10 -61 0
-8 -65 0
-6 -61 0
-9 -62 0
-10 -62 0
-9 -65 0
-7 -83 0
-7 -82 0
-9 -84 0
-8 -85 0
-7 -84 0
-8 -83 0
-7 -85 0
-7 -98 0
-8 -100 0
-7 -97 0
-6 -98 0
-8 -96 0
-8 -98 0
-6 -97 0
-6 -104 0
-6 -101 0
-8 -105 0
-9 -102 0
-10 -105 0
-6 -103 0
-7 -103 0
-6 -136 0
-10 -138 0
-8 -139 0
-10 -139 0
-6 -137 0
-8 -137 0
-10 -136 0
-10 -144 0
-6 -145 0
-10 -143 0
-9 -143 0
-8 -141 0
-9 -145 0
-7 -141 0
-15 -22 0
-12 -22 0
-13 -22 0
-14 -23 0
-13 -25 0
-14 -22 0
-15 -24 0
-11 -34 0
-12 -33 0
-15 -32 0
-15 -35 0
-14 -32 0
-12 -34 0
-12 -32 0
-11 -38 0
-13 -38 0
-14 -37 0
-14 -38 0
-11 -36 0
-11 -40 0
-13 -39 0
-11 -43 0
-14 -42 0
-14 -43 0
-11 -45 0
-14 -41 0
-13 -44 0
-15 -43 0
-13 -46 0
-15 -49 0
-13 -49 0
-13 -47 0
-14 -48 0
-14 -47 0
-12 -48 0
-11 -59 0
-11 -57 0
-14 -57 0
-11 -60 0
-12 -58 0
-13 -60 0
-12 -56 0
-13 -62 0
-11 -63 0
-11 -61 0
-13 -64 0
-15 -61 0
-15 -64 0
-13 -63 0
-12 -84 0
-12 -85 0
-15 -83 0
-13 -81 0
-12 -82 0
-14 -83 0
-15 -82 0
-15 -109 0
-13 -108 0
-11 -109 0
-11 -107 0
-15 -106 0
-15 -107 0
-13 -110 0
-15 -115 0
-11 -112 0
-11 -111 0
-15 -111 0
-11 -114 0
-12 -114 0
-11 -115 0
-11 -128 0
-15 -127 0
-14 -127 0
-12 -129 0
-15 -129 0
-11 -129 0
-14 -126 0
-14 -136 0
-11 -137 0
-11 -136 0
-12 -139 0
-15 -140 0
-13 -139 0
-12 -136 0
-12 -146 0
-11 -147 0
-13 -149 0
-11 -149 0
-12 -147 0
-15 -148 0
-15 -146 0
-17 -23 0
-20 -24 0
-20 -25 0
-18 -24 0
-18 -25 0
-20 -21 0
-19 -25 0
-19 -29 0
-17 -28 0
-17 -27 0
-17 -30 0
-16 -30 0
-20 -29 0
-16 -28 0
-17 -46 0
-18 -48 0
-17 -47 0
-19 -48 0
-18 -49 0
-19 -47 0
-19 -50 0
-18 -54 0
-20 -54 0
-16 -54 0
-19 -51 0
-18 -53 0
-17 -52 0
-19 -52 0
-19 -60 0
-16 -60 0
-19 -56 0
-17 -60 0
-19 -59 0
-19 -57 0
-18 -59 0
-19 -63 0
-16 -64 0
-16 -61 0
-17 -61 0
-19 -65 0
-18 -64 0
-20 -64 0
-17 -67 0
-18 -67 0
-16 -70 0
-16 -69 0
-18 -66 0
-16 -68 0
-20 -69 0
-18 -92 0
-19 -91 0
-19 -95 0
-17 -92 0
-17 -91 0
-18 -91 0
-20 -93 0
-20 -99 0
-16 -99 0
-20 -96 0
-19 -98 0
-17 -98 0
-17 -100 0
-18 -99 0
-16 -103 0
-20 -101 0
-16 -104 0
-17 -101 0
-16 -101 0
-17 -102 0
-18 -105 0
-16 -113 0
-16 -114 0
-19 -112 0
-17 -111 0
-19 -113 0
-20 -113 0
-17 -114 0
-20 -127 0
-19 -130 0
-20 -128 0
-18 -127 0
-18 -130 0
-16 -129 0
-17 -129 0
-19 -131 0
-18 -133 0
-16 -134 0
-17 -134 0
-19 -134 0
-19 -132 0
-19 -135 0
-19 -138 0
-16 -136 0
-17 -137 0
-18 -137 0
-18 -138 0
-19 -137 0
-19 -140 0
-20 -141 0
-20 -142 0
-18 -145 0
-18 -143 0
-19 -143 0
-19 -142 0
-19 -144 0
-22 -28 0
-24 -29 0
-23 -30 0
-21 -27 0
-21 -29 0
-21 -30 0
-24 -27 0
-25 -60 0
-21 -58 0
-23 -59 0
-22 -57 0
-22 -59 0
-24 -59 0
-21 -57 0
-21 -75 0
-24 -75 0
-24 -73 0
-25 -75 0
-24 -72 0
-24 -71 0
-25 -72 0
-24 -78 0
-22 -76 0
-22 -80 0
-23 -79 0
-21 -76 0
-24 -80 0
-25 -77 0
-21 -89 0
-23 -88 0
-24 -90 0
-21 -86 0
-21 -87 0
-23 -86 0
-24 -87 0
-22 -91 0
-25 -94 0
-25 -92 0
-21 -94 0
-25 -95 0
-23 -93 0
-22 -94 0
-24 -97 0
-22 -97 0
-23 -99 0
-25 -100 0
-21 -98 0
-24 -96 0
-22 -99 0
-22 -111 0
-24 -112 0
-25 -114 0
-21 -112 0
-23 -115 0
-22 -115 0
-24 -114 0
-25 -120 0
-21 -120 0
-22 -117 0
-25 -118 0
-24 -116 0
-23 -120 0
-22 -120 0
-21 -131 0
-25 -133 0
-25 -134 0
-25 -135 0
-22 -135 0
-21 -135 0
-24 -134 0
-25 -136 0
-21 -139 0
-24 -140 0
-22 -137 0
-22 -139 0
-25 -140 0
-23 -140 0
-26 -33 0
-28 -32 0
-30 -32 0
-30 -35 0
-27 -34 0
-26 -31 0
-28 -31 0
-26 -39 0
-30 -38 0
-26 -37 0
-28 -37 0
-29 -38 0
-28 -40 0
-30 -39 0
-28 -58 0
-28 -60 0
-30 -57 0
-29 -60 0
-30 -59 0
-27 -59 0
-26 -56 0
-26 -67 0
-29 -66 0
-29 -69 0
-26 -68 0
-28 -70 0
-30 -67 0
-26 -70 0
-28 -73 0
-27 -73 0
-27 -74 0
-29 -73 0
-26 -72 0
-26 -73 0
-26 -74 0
-29 -78 0
-27 -77 0
-27 -76 0
-29 -76 0
-29 -77 0
-28 -80 0
-28 -77 0
-28 -81 0
-28 -84 0
-27 -85 0
-30 -81 0
-26 -85 0
-26 -82 0
-28 -82 0
-28 -94 0
-27 -94 0
-27 -93 0
-28 -91 0
-26 -93 0
-30 -91 0
-29 -95 0
-28 -97 0
-29 -100 0
-30 -97 0
-29 -96 0
-26 -99 0
-26 -98 0
-30 -99 0
-30 -104 0
-26 -105 0
-29 -102 0
-28 -103 0
-30 -101 0
-29 -104 0
-30 -103 0
-26 -109 0
-26 -107 0
-27 -108 0
-28 -110 0
-30 -106 0
-30 -107 0
-26 -108 0
-30 -118 0
-30 -119 0
-27 -118 0
-26 -120 0
-27 -117 0
-30 -116 0
-28 -116 0
-26 -126 0
-27 -127 0
-27 -128 0
-26 -128 0
-30 -129 0
-30 -128 0
-28 -127 0
-27 -131 0
-28 -131 0
-30 -134 0
-26 -132 0
-29 -134 0
-29 -135 0
-29 -133 0
-32 -38 0
-34 -39 0
-35 -37 0
-33 -36 0
-35 -36 0
-33 -38 0
-33 -40 0
-33 -45 0
-31 -45 0
-32 -45 0
-32 -41 0
-33 -41 0
-35 -43 0
-34 -43 0
-31 -52 0
-31 -53 0
-34 -55 0
-31 -51 0
-33 -52 0
-31 -55 0
-34 -53 0
-33 -62 0
-31 -61 0
-34 -65 0
-34 -62 0
-31 -64 0
-33 -65 0
-32 -64 0
-33 -69 0
-31 -66 0
-35 -66 0
-33 -68 0
-34 -69 0
-32 -69 0
-34 -68 0
-33 -78 0
-35 -77 0
-32 -80 0
-33 -76 0
-32 -76 0
-34 -76 0
-33 -80 0
-33 -90 0
-31 -87 0
-35 -89 0
-34 -88 0
-31 -89 0
-32 -88 0
-31 -88 0
-35 -108 0
-35 -109 0
-34 -106 0
-31 -108 0
-32 -106 0
-33 -108 0
-34 -108 0
-31 -115 0
-31 -111 0
-33 -113 0
-33 -111 0
-35 -111 0
-32 -113 0
-35 -113 0
-34 -121 0
-34 -122 0
-33 -124 0
-32 -123 0
-32 -122 0
-32 -125 0
-34 -125 0
-34 -127 0
-33 -127 0
-33 -128 0
-33 -129 0
-32 -127 0
-31 -130 0
-31 -126 0
-34 -131 0
-34 -132 0
-31 -131 0
-33 -131 0
-34 -134 0
-34 -133 0
-31 -132 0
-31 -147 0
-34 -148 0
-35 -150 0
-32 -150 0
-31 -148 0
-35 -148 0
-34 -149 0
-39 -43 0
-39 -44 0
-40 -45 0
-39 -42 0
-37 -41 0
-40 -41 0
-39 -41 0
-37 -49 0
-38 -50 0
-38 -49 0
-37 -46 0
-38 -47 0
-36 -49 0
-38 -46 0
-37 -57 0
-36 -56 0
-40 -59 0
-38 -59 0
-38 -60 0
-39 -59 0
-40 -56 0
-38 -63 0
-40 -65 0
-39 -61 0
-36 -64 0
-38 -64 0
-36 -61 0
-38 -61 0
-37 -69 0
-39 -67 0
-40 -67 0
-37 -70 0
-37 -67 0
-36 -70 0
-40 -69 0
-38 -73 0
-37 -74 0
-38 -71 0
-36 -75 0
-37 -71 0
-40 -75 0
-40 -72 0
-36 -100 0
-39 -97 0
-40 -100 0
-38 -98 0
-38 -100 0
-40 -96 0
-37 -100 0
-40 -104 0
-38 -101 0
-37 -105 0
-38 -102 0
-40 -103 0
-36 -101 0
-39 -104 0
-37 -116 0
-37 -117 0
-38 -117 0
-40 -119 0
-36 -118 0
-40 -116 0
-40 -120 0
-39 -130 0
-38 -126 0
-40 -126 0
-38 -129 0
-38 -130 0
-36 -126 0
-40 -130 0
-36 -132 0
-39 -131 0
-38 -135 0
-37 -132 0
-37 -133 0
-37 -135 0
-38 -134 0
-36 -137 0
-39 -139 0
-40 -136 0
-37 -140 0
-37 -138 0
-36 -139 0
-39 -140 0
-36 -142 0
-36 -144 0
-38 -143 0
-38 -141 0
-37 -143 0
-40 -144 0
-38 -144 0
-37 -148 0
-36 -150 0
-37 -147 0
-40 -150 0
-36 -148 0
-38 -150 0
-37 -149 0
-44 -54 0
-43 -55 0
-43 -54 0
-44 -55 0
-43 -52 0
-42 -51 0
-44 -53 0
-45 -63 0
-43 -61 0
-42 -63 0
-45 -61 0
-44 -61 0
-45 -62 0
-42 -62 0
-42 -80 0
-43 -80 0
-45 -76 0
-43 -76 0
-41 -77 0
-44 -80 0
-44 -78 0
-45 -85 0
-45 -84 0
-41 -81 0
-42 -85 0
-41 -84 0
-41 -85 0
-43 -81 0
-43 -87 0
-41 -87 0
-44 -87 0
-42 -89 0
-45 -90 0
-45 -87 0
-45 -89 0
-45 -94 0
-43 -93 0
-43 -92 0
-42 -93 0
-45 -95 0
-45 -92 0
-43 -95 0
-41 -98 0
-42 -96 0
-42 -98 0
-41 -100 0
-43 -100 0
-44 -98 0
-42 -97 0
-44 -108 0
-43 -109 0
-42 -107 0
-45 -109 0
-42 -109 0
-45 -110 0
-44 -110 0
-42 -112 0
-42 -114 0
-45 -112 0
-42 -111 0
-44 -111 0
-44 -115 0
-41 -111 0
-42 -116 0
-42 -120 0
-43 -119 0
-41 -119 0
-43 -117 0
-45 -116 0
-44 -116 0
-44 -143 0
-42 -145 0
-45 -143 0
-41 -145 0
-43 -141 0
-42 -144 0
-42 -141 0
-50 -51 0
-46 -52 0
-48 -54 0
-46 -53 0
-49 -53 0
-50 -52 0
-50 -55 0
-50 -59 0
-47 -58 0
-50 -60 0
-47 -59 0
-48 -56 0
-47 -60 0
-46 -57 0
-48 -78 0
-49 -80 0
-50 -79 0
-49 -78 0
-50 -76 0
-46 -80 0
-48 -80 0
-49 -85 0
-46 -82 0
-46 -83 0
-50 -82 0
-48 -81 0
-49 -82 0
-47 -85 0
-49 -89 0
-48 -90 0
-48 -89 0
-47 -88 0
-50 -90 0
-47 -90 0
-48 -86 0
-48 -97 0
-48 -99 0
-46 -96 0
-46 -97 0
-49 -98 0
-47 -99 0
-48 -98 0
-50 -102 0
-47 -102 0
-48 -101 0
-46 -105 0
-49 -104 0
-47 -101 0
-47 -104 0
-46 -116 0
-48 -117 0
-50 -118 0
-47 -117 0
-48 -118 0
-46 -117 0
-49 -117 0
-50 -133 0
-47 -131 0
-49 -133 0
-50 -132 0
-50 -131 0
-49 -135 0
-46 -134 0
-46 -140 0
-49 -137 0
-47 -139 0
-46 -138 0
-47 -140 0
-50 -137 0
-50 -136 0
-50 -143 0
-50 -141 0
-47 -141 0
-46 -145 0
-49 -143 0
-49 -142 0
-48 -142 0
-47 -150 0
-48 -150 0
-48 -149 0
-47 -149 0
-46 -146 0
-50 -150 0
-49 -150 0
-52 -58 0
-55 -60 0
-52 -60 0
-52 -59 0
-53 -58 0
-51 -59 0
-54 -60 0
-51 -68 0
-51 -66 0
-52 -68 0
-52 -69 0
-52 -67 0
-52 -66 0
-53 -67 0
-53 -73 0
-51 -73 0
-54 -75 0
-53 -71 0
-54 -74 0
-52 -74 0
-52 -73 0
-55 -77 0
-53 -77 0
-51 -79 0
-53 -79 0
-51 -77 0
-51 -80 0
-55 -80 0
-52 -93 0
-54 -91 0
-54 -95 0
-55 -93 0
-54 -92 0
-52 -94 0
-54 -93 0
-53 -98 0
-51 -97 0
-54 -96 0
-52 -98 0
-55 -96 0
-52 -97 0
-51 -99 0
-53 -138 0
-55 -140 0
-55 -136 0
-52 -138 0
-54 -138 0
-52 -137 0
-54 -139 0
-52 -144 0
-52 -143 0
-55 -143 0
-51 -142 0
-52 -145 0
-51 -144 0
-54 -142 0
-55 -147 0
-55 -146 0
-53 -146 0
-51 -146 0
-54 -149 0
-55 -149 0
-54 -148 0
-57 -64 0
-58 -61 0
-58 -64 0
-58 -63 0
-56 -63 0
-59 -63 0
-57 -61 0
-57 -71 0
-57 -73 0
-59 -72 0
-60 -71 0
-59 -74 0
-58 -75 0
-59 -75 0
-56 -77 0
-59 -79 0
-57 -76 0
-60 -78 0
-58 -76 0
-57 -78 0
-59 -78 0
-58 -88 0
-60 -90 0
-58 -87 0
-59 -88 0
-59 -90 0
-56 -87 0
-60 -87 0
-60 -96 0
-56 -98 0
-60 -97 0
-58 -96 0
-58 -98 0
-59 -98 0
-57 -96 0
-60 -107 0
-57 -108 0
-58 -109 0
-60 -110 0
-58 -108 0
-58 -107 0
-59 -108 0
-59 -112 0
-60 -114 0
-60 -112 0
-57 -113 0
-60 -115 0
-59 -114 0
-56 -114 0
-56 -124 0
-56 -125 0
-59 -122 0
-58 -124 0
-58 -121 0
-60 -124 0
-59 -124 0
-61 -82 0
-63 -85 0
-64 -81 0
-62 -81 0
-64 -82 0
-64 -83 0
-65 -81 0
-63 -87 0
-65 -87 0
-64 -90 0
-62 -90 0
-65 -90 0
-62 -88 0
-65 -88 0
-65 -91 0
-61 -92 0
-64 -94 0
-64 -93 0
-61 -91 0
-65 -95 0
-65 -94 0
-63 -96 0
-61 -97 0
-63 -98 0
-62 -99 0
-65 -98 0
-62 -100 0
-62 -98 0
-62 -101 0
-62 -105 0
-62 -104 0
-61 -104 0
-62 -102 0
-63 -103 0
-62 -103 0
-61 -125 0
-61 -122 0
-63 -124 0
-63 -123 0
-65 -124 0
-64 -125 0
-61 -121 0
-62 -128 0
-63 -127 0
-61 -126 0
-63 -126 0
-62 -130 0
-65 -128 0
-63 -128 0
-65 -140 0
-64 -138 0
-64 -140 0
-63 -138 0
-61 -136 0
-62 -137 0
-63 -136 0
-67 -72 0
-69 -73 0
-68 -71 0
-68 -75 0
-66 -73 0
-66 -72 0
-70 -72 0
-67 -76 0
-66 -80 0
-67 -79 0
-69 -79 0
-68 -78 0
-68 -77 0
-70 -78 0
-69 -89 0
-67 -90 0
-69 -86 0
-69 -90 0
-68 -89 0
-67 -89 0
-70 -90 0
-70 -108 0
-69 -106 0
-67 -106 0
-67 -107 0
-69 -108 0
-66 -109 0
-68 -107 0
-67 -124 0
-66 -122 0
-69 -122 0
-69 -125 0
-70 -122 0
-68 -125 0
-66 -123 0
-69 -126 0
-69 -129 0
-68 -126 0
-66 -130 0
-70 -128 0
-68 -129 0
-70 -130 0
-68 -136 0
-66 -138 0
-66 -137 0
-70 -136 0
-70 -139 0
-66 -140 0
-70 -140 0
-70 -141 0
-68 -145 0
-66 -143 0
-69 -144 0
-67 -145 0
-66 -144 0
-67 -143 0
-66 -149 0
-70 -148 0
-68 -150 0
-68 -149 0
-67 -146 0
-66 -148 0
-70 -149 0
-75 -78 0
-75 -77 0
-71 -80 0
-73 -76 0
-74 -78 0
-71 -79 0
-73 -79 0
-71 -89 0
-73 -87 0
-73 -88 0
-73 -90 0
-74 -88 0
-75 -87 0
-72 -87 0
-75 -102 0
-75 -104 0
-71 -102 0
-73 -104 0
-72 -104 0
-71 -103 0
-72 -102 0
-75 -112 0
-72 -114 0
-72 -115 0
-74 -114 0
-74 -111 0
-72 -112 0
-73 -112 0
-73 -116 0
-73 -118 0
-72 -117 0
-72 -116 0
-71 -117 0
-71 -119 0
-71 -116 0
-74 -125 0
-71 -124 0
-71 -121 0
-72 -123 0
-75 -121 0
-75 -125 0
-75 -124 0
-74 -130 0
-75 -129 0
-75 -130 0
-71 -126 0
-75 -128 0
-73 -130 0
-75 -127 0
-75 -131 0
-75 -133 0
-74 -135 0
-73 -134 0
-72 -133 0
-74 -134 0
-73 -135 0
-71 -145 0
-71 -143 0
-73 -144 0
-72 -143 0
-74 -145 0
-75 -143 0
-72 -142 0
-80 -105 0
-79 -101 0
-78 -103 0
-77 -104 0
-77 -101 0
-78 -101 0
-79 -105 0
-76 -112 0
-77 -115 0
-78 -115 0
-80 -111 0
-79 -114 0
-78 -111 0
-80 -115 0
-77 -128 0
-80 -128 0
-78 -127 0
-76 -126 0
-79 -129 0
-78 -126 0
-79 -130 0
-76 -134 0
-77 -133 0
-77 -131 0
-79 -131 0
-80 -132 0
-79 -132 0
-79 -133 0
-80 -145 0
-78 -142 0
-76 -143 0
-76 -141 0
-78 -143 0
-77 -142 0
-77 -144 0
-76 -149 0
-77 -149 0
-78 -150 0
-76 -150 0
-78 -149 0
-77 -150 0
-76 -146 0
-85 -94 0
-81 -95 0
-83 -94 0
-82 -95 0
-84 -92 0
-82 -91 0
-85 -93 0
-81 -97 0
-81 -96 0
-85 -99 0
-83 -97 0
-81 -100 0
-83 -98 0
-83 -100 0
-84 -101 0
-83 -101 0
-84 -105 0
-81 -102 0
-81 -101 0
-84 -102 0
-85 -104 0
-82 -106 0
-83 -107 0
-84 -110 0
-82 -109 0
-83 -109 0
-84 -107 0
-83 -110 0
-85 -113 0
-83 -114 0
-81 -113 0
-84 -112 0
-82 -114 0
-84 -113 0
-83 -112 0
-83 -116 0
-81 -117 0
-85 -117 0
-82 -116 0
-85 -118 0
-83 -117 0
-81 -116 0
-83 -123 0
-83 -122 0
-82 -124 0
-83 -121 0
-83 -125 0
-83 -124 0
-84 -125 0
-85 -133 0
-84 -134 0
-82 -132 0
-81 -131 0
-84 -133 0
-81 -133 0
-82 -134 0
-82 -141 0
-85 -144 0
-81 -143 0
-83 -141 0
-85 -143 0
-84 -145 0
-81 -145 0
-81 -148 0
-85 -148 0
-83 -150 0
-85 -147 0
-83 -147 0
-83 -148 0
-84 -148 0
-90 -103 0
-89 -102 0
-86 -105 0
-86 -101 0
-90 -102 0
-88 -101 0
-87 -104 0
-86 -109 0
-88 -106 0
-89 -108 0
-87 -106 0
-90 -108 0
-86 -108 0
-88 -109 0
-89 -128 0
-86 -126 0
-86 -127 0
-88 -130 0
-89 -127 0
-86 -129 0
-88 -128 0
-86 -133 0
-87 -134 0
-89 -133 0
-89 -134 0
-89 -131 0
-89 -135 0
-88 -133 0
-89 -136 0
-87 -138 0
-89 -138 0
-86 -140 0
-90 -137 0
-89 -140 0
-90 -140 0
-92 -120 0
-95 -118 0
-93 -120 0
-92 -117 0
-91 -118 0
-91 -116 0
-94 -118 0
-95 -123 0
-91 -125 0
-94 -125 0
-95 -122 0
-92 -122 0
-95 -121 0
-95 -124 0
-91 -126 0
-91 -129 0
-95 -129 0
-93 -130 0
-95 -130 0
-94 -130 0
-91 -128 0
-93 -133 0
-93 -135 0
-91 -133 0
-94 -133 0
-95 -134 0
-91 -135 0
-91 -131 0
-95 -138 0
-94 -140 0
-94 -138 0
-91 -139 0
-94 -139 0
-93 -137 0
-93 -140 0
-92 -146 0
-92 -147 0
-91 -148 0
-92 -148 0
-95 -150 0
-95 -147 0
-94 -150 0
-100 -105 0
-100 -104 0
-98 -102 0
-98 -104 0
-96 -105 0
-98 -103 0
-99 -101 0
-98 -108 0
-97 -110 0
-97 -107 0
-98 -106 0
-97 -106 0
-96 -107 0
-99 -109 0
-96 -117 0
-97 -117 0
-98 -117 0
-97 -120 0
-100 -119 0
-97 -116 0
-100 -117 0
-97 -122 0
-99 -124 0
-100 -122 0
-97 -124 0
-99 -122 0
-99 -121 0
-98 -123 0
-97 -150 0
-99 -147 0
-98 -149 0
-98 -148 0
-98 -146 0
-100 -149 0
-98 -150 0
-104 -130 0
-104 -126 0
-105 -129 0
-103 -128 0
-101 -128 0
-105 -126 0
-104 -129 0
-103 -134 0
-104 -133 0
-102 -131 0
-103 -133 0
-104 -135 0
-101 -135 0
-105 -135 0
-102 -139 0
-101 -138 0
-103 -140 0
-102 -140 0
-105 -138 0
-101 -140 0
-101 -136 0
-108 -111 0
-108 -114 0
-108 -113 0
-108 -115 0
-107 -115 0
-110 -115 0
-107 -111 0
-109 -128 0
-108 -130 0
-107 -130 0
-108 -128 0
-108 -126 0
-106 -130 0
-110 -130 0
-110 -131 0
-110 -133 0
-107 -134 0
-106 -134 0
-108 -134 0
-108 -131 0
-106 -135 0
-112 -125 0
-111 -123 0
-111 -125 0
-112 -121 0
-113 -124 0
-112 -124 0
-115 -125 0
-112 -140 0
-111 -137 0
-111 -136 0
-112 -137 0
-115 -138 0
-115 -137 0
-115 -139 0
-120 -125 0
-117 -125 0
-119 -121 0
-119 -123 0
-118 -122 0
-119 -124 0
-120 -123 0
-120 -146 0
-116 -149 0
-117 -150 0
-118 -146 0
-118 -149 0
-120 -150 0
-120 -149 0
-122 -138 0
-124 -137 0
-124 -136 0
-125 -140 0
-121 -137 0
-123 -140 0
-121 -140 0
-121 -147 0
-122 -147 0
-121 -148 0
-123 -147 0
-122 -150 0
-122 -146 0
-124 -150 0
-129 -131 0
-130 -132 0
-129 -134 0
-126 -132 0
-129 -133 0
-130 -134 0
-128 -134 0
-126 -140 0
-127 -137 0
-128 -136 0
-130 -137 0
-127 -138 0
-130 -140 0
-128 -138 0
-129 -147 0
-130 -149 0
-126 -147 0
-128 -147 0
-128 -150 0
-130 -146 0
-127 -148 0
-131 -144 0
-135 -141 0
-132 -142 0
-135 -144 0
-134 -143 0
-131 -145 0
-133 -145 0
-134 -146 0
-134 -147 0
-133 -147 0
-132 -149 0
-135 -146 0
-132 -147 0
-134 -149 0
-139 -146 0
-140 -146 0
-136 -150 0
-139 -149 0
-140 -147 0
-140 -148 0
-140 -150 0
